p cnf 100 1020
1 2 3 4 5 6 7 8 9 10 0
11 12 13 14 15 16 17 18 19 20 0
21 22 23 24 25 26 27 28 29 30 0
31 32 33 34 35 36 37 38 39 40 0
41 42 43 44 45 46 47 48 49 50 0
51 52 53 54 55 56 57 58 59 60 0
61 62 63 64 65 66 67 68 69 70 0
71 72 73 74 75 76 77 78 79 80 0
81 82 83 84 85 86 87 88 89 90 0
91 92 93 94 95 96 97 98 99 100 0
-1 0
-12 0
-23 0
-34 0
-45 0
-56 0
-67 0
-78 0
-89 0
-100 0
-1 -1 1 0
-1 -2 2 0
-1 -3 3 0
-1 -4 4 0
-1 -5 5 0
-1 -6 6 0
-1 -7 7 0
-1 -8 8 0
-1 -9 9 0
-1 -10 10 0
-2 -11 1 0
-2 -12 2 0
-2 -13 3 0
-2 -14 4 0
-2 -15 5 0
-2 -16 6 0
-2 -17 7 0
-2 -18 8 0
-2 -19 9 0
-2 -20 10 0
-3 -21 1 0
-3 -22 2 0
-3 -23 3 0
-3 -24 4 0
-3 -25 5 0
-3 -26 6 0
-3 -27 7 0
-3 -28 8 0
-3 -29 9 0
-3 -30 10 0
-4 -31 1 0
-4 -32 2 0
-4 -33 3 0
-4 -34 4 0
-4 -35 5 0
-4 -36 6 0
-4 -37 7 0
-4 -38 8 0
-4 -39 9 0
-4 -40 10 0
-5 -41 1 0
-5 -42 2 0
-5 -43 3 0
-5 -44 4 0
-5 -45 5 0
-5 -46 6 0
-5 -47 7 0
-5 -48 8 0
-5 -49 9 0
-5 -50 10 0
-6 -51 1 0
-6 -52 2 0
-6 -53 3 0
-6 -54 4 0
-6 -55 5 0
-6 -56 6 0
-6 -57 7 0
-6 -58 8 0
-6 -59 9 0
-6 -60 10 0
-7 -61 1 0
-7 -62 2 0
-7 -63 3 0
-7 -64 4 0
-7 -65 5 0
-7 -66 6 0
-7 -67 7 0
-7 -68 8 0
-7 -69 9 0
-7 -70 10 0
-8 -71 1 0
-8 -72 2 0
-8 -73 3 0
-8 -74 4 0
-8 -75 5 0
-8 -76 6 0
-8 -77 7 0
-8 -78 8 0
-8 -79 9 0
-8 -80 10 0
-9 -81 1 0
-9 -82 2 0
-9 -83 3 0
-9 -84 4 0
-9 -85 5 0
-9 -86 6 0
-9 -87 7 0
-9 -88 8 0
-9 -89 9 0
-9 -90 10 0
-10 -91 1 0
-10 -92 2 0
-10 -93 3 0
-10 -94 4 0
-10 -95 5 0
-10 -96 6 0
-10 -97 7 0
-10 -98 8 0
-10 -99 9 0
-10 -100 10 0
-11 -1 11 0
-11 -2 12 0
-11 -3 13 0
-11 -4 14 0
-11 -5 15 0
-11 -6 16 0
-11 -7 17 0
-11 -8 18 0
-11 -9 19 0
-11 -10 20 0
-12 -11 11 0
-12 -12 12 0
-12 -13 13 0
-12 -14 14 0
-12 -15 15 0
-12 -16 16 0
-12 -17 17 0
-12 -18 18 0
-12 -19 19 0
-12 -20 20 0
-13 -21 11 0
-13 -22 12 0
-13 -23 13 0
-13 -24 14 0
-13 -25 15 0
-13 -26 16 0
-13 -27 17 0
-13 -28 18 0
-13 -29 19 0
-13 -30 20 0
-14 -31 11 0
-14 -32 12 0
-14 -33 13 0
-14 -34 14 0
-14 -35 15 0
-14 -36 16 0
-14 -37 17 0
-14 -38 18 0
-14 -39 19 0
-14 -40 20 0
-15 -41 11 0
-15 -42 12 0
-15 -43 13 0
-15 -44 14 0
-15 -45 15 0
-15 -46 16 0
-15 -47 17 0
-15 -48 18 0
-15 -49 19 0
-15 -50 20 0
-16 -51 11 0
-16 -52 12 0
-16 -53 13 0
-16 -54 14 0
-16 -55 15 0
-16 -56 16 0
-16 -57 17 0
-16 -58 18 0
-16 -59 19 0
-16 -60 20 0
-17 -61 11 0
-17 -62 12 0
-17 -63 13 0
-17 -64 14 0
-17 -65 15 0
-17 -66 16 0
-17 -67 17 0
-17 -68 18 0
-17 -69 19 0
-17 -70 20 0
-18 -71 11 0
-18 -72 12 0
-18 -73 13 0
-18 -74 14 0
-18 -75 15 0
-18 -76 16 0
-18 -77 17 0
-18 -78 18 0
-18 -79 19 0
-18 -80 20 0
-19 -81 11 0
-19 -82 12 0
-19 -83 13 0
-19 -84 14 0
-19 -85 15 0
-19 -86 16 0
-19 -87 17 0
-19 -88 18 0
-19 -89 19 0
-19 -90 20 0
-20 -91 11 0
-20 -92 12 0
-20 -93 13 0
-20 -94 14 0
-20 -95 15 0
-20 -96 16 0
-20 -97 17 0
-20 -98 18 0
-20 -99 19 0
-20 -100 20 0
-21 -1 21 0
-21 -2 22 0
-21 -3 23 0
-21 -4 24 0
-21 -5 25 0
-21 -6 26 0
-21 -7 27 0
-21 -8 28 0
-21 -9 29 0
-21 -10 30 0
-22 -11 21 0
-22 -12 22 0
-22 -13 23 0
-22 -14 24 0
-22 -15 25 0
-22 -16 26 0
-22 -17 27 0
-22 -18 28 0
-22 -19 29 0
-22 -20 30 0
-23 -21 21 0
-23 -22 22 0
-23 -23 23 0
-23 -24 24 0
-23 -25 25 0
-23 -26 26 0
-23 -27 27 0
-23 -28 28 0
-23 -29 29 0
-23 -30 30 0
-24 -31 21 0
-24 -32 22 0
-24 -33 23 0
-24 -34 24 0
-24 -35 25 0
-24 -36 26 0
-24 -37 27 0
-24 -38 28 0
-24 -39 29 0
-24 -40 30 0
-25 -41 21 0
-25 -42 22 0
-25 -43 23 0
-25 -44 24 0
-25 -45 25 0
-25 -46 26 0
-25 -47 27 0
-25 -48 28 0
-25 -49 29 0
-25 -50 30 0
-26 -51 21 0
-26 -52 22 0
-26 -53 23 0
-26 -54 24 0
-26 -55 25 0
-26 -56 26 0
-26 -57 27 0
-26 -58 28 0
-26 -59 29 0
-26 -60 30 0
-27 -61 21 0
-27 -62 22 0
-27 -63 23 0
-27 -64 24 0
-27 -65 25 0
-27 -66 26 0
-27 -67 27 0
-27 -68 28 0
-27 -69 29 0
-27 -70 30 0
-28 -71 21 0
-28 -72 22 0
-28 -73 23 0
-28 -74 24 0
-28 -75 25 0
-28 -76 26 0
-28 -77 27 0
-28 -78 28 0
-28 -79 29 0
-28 -80 30 0
-29 -81 21 0
-29 -82 22 0
-29 -83 23 0
-29 -84 24 0
-29 -85 25 0
-29 -86 26 0
-29 -87 27 0
-29 -88 28 0
-29 -89 29 0
-29 -90 30 0
-30 -91 21 0
-30 -92 22 0
-30 -93 23 0
-30 -94 24 0
-30 -95 25 0
-30 -96 26 0
-30 -97 27 0
-30 -98 28 0
-30 -99 29 0
-30 -100 30 0
-31 -1 31 0
-31 -2 32 0
-31 -3 33 0
-31 -4 34 0
-31 -5 35 0
-31 -6 36 0
-31 -7 37 0
-31 -8 38 0
-31 -9 39 0
-31 -10 40 0
-32 -11 31 0
-32 -12 32 0
-32 -13 33 0
-32 -14 34 0
-32 -15 35 0
-32 -16 36 0
-32 -17 37 0
-32 -18 38 0
-32 -19 39 0
-32 -20 40 0
-33 -21 31 0
-33 -22 32 0
-33 -23 33 0
-33 -24 34 0
-33 -25 35 0
-33 -26 36 0
-33 -27 37 0
-33 -28 38 0
-33 -29 39 0
-33 -30 40 0
-34 -31 31 0
-34 -32 32 0
-34 -33 33 0
-34 -34 34 0
-34 -35 35 0
-34 -36 36 0
-34 -37 37 0
-34 -38 38 0
-34 -39 39 0
-34 -40 40 0
-35 -41 31 0
-35 -42 32 0
-35 -43 33 0
-35 -44 34 0
-35 -45 35 0
-35 -46 36 0
-35 -47 37 0
-35 -48 38 0
-35 -49 39 0
-35 -50 40 0
-36 -51 31 0
-36 -52 32 0
-36 -53 33 0
-36 -54 34 0
-36 -55 35 0
-36 -56 36 0
-36 -57 37 0
-36 -58 38 0
-36 -59 39 0
-36 -60 40 0
-37 -61 31 0
-37 -62 32 0
-37 -63 33 0
-37 -64 34 0
-37 -65 35 0
-37 -66 36 0
-37 -67 37 0
-37 -68 38 0
-37 -69 39 0
-37 -70 40 0
-38 -71 31 0
-38 -72 32 0
-38 -73 33 0
-38 -74 34 0
-38 -75 35 0
-38 -76 36 0
-38 -77 37 0
-38 -78 38 0
-38 -79 39 0
-38 -80 40 0
-39 -81 31 0
-39 -82 32 0
-39 -83 33 0
-39 -84 34 0
-39 -85 35 0
-39 -86 36 0
-39 -87 37 0
-39 -88 38 0
-39 -89 39 0
-39 -90 40 0
-40 -91 31 0
-40 -92 32 0
-40 -93 33 0
-40 -94 34 0
-40 -95 35 0
-40 -96 36 0
-40 -97 37 0
-40 -98 38 0
-40 -99 39 0
-40 -100 40 0
-41 -1 41 0
-41 -2 42 0
-41 -3 43 0
-41 -4 44 0
-41 -5 45 0
-41 -6 46 0
-41 -7 47 0
-41 -8 48 0
-41 -9 49 0
-41 -10 50 0
-42 -11 41 0
-42 -12 42 0
-42 -13 43 0
-42 -14 44 0
-42 -15 45 0
-42 -16 46 0
-42 -17 47 0
-42 -18 48 0
-42 -19 49 0
-42 -20 50 0
-43 -21 41 0
-43 -22 42 0
-43 -23 43 0
-43 -24 44 0
-43 -25 45 0
-43 -26 46 0
-43 -27 47 0
-43 -28 48 0
-43 -29 49 0
-43 -30 50 0
-44 -31 41 0
-44 -32 42 0
-44 -33 43 0
-44 -34 44 0
-44 -35 45 0
-44 -36 46 0
-44 -37 47 0
-44 -38 48 0
-44 -39 49 0
-44 -40 50 0
-45 -41 41 0
-45 -42 42 0
-45 -43 43 0
-45 -44 44 0
-45 -45 45 0
-45 -46 46 0
-45 -47 47 0
-45 -48 48 0
-45 -49 49 0
-45 -50 50 0
-46 -51 41 0
-46 -52 42 0
-46 -53 43 0
-46 -54 44 0
-46 -55 45 0
-46 -56 46 0
-46 -57 47 0
-46 -58 48 0
-46 -59 49 0
-46 -60 50 0
-47 -61 41 0
-47 -62 42 0
-47 -63 43 0
-47 -64 44 0
-47 -65 45 0
-47 -66 46 0
-47 -67 47 0
-47 -68 48 0
-47 -69 49 0
-47 -70 50 0
-48 -71 41 0
-48 -72 42 0
-48 -73 43 0
-48 -74 44 0
-48 -75 45 0
-48 -76 46 0
-48 -77 47 0
-48 -78 48 0
-48 -79 49 0
-48 -80 50 0
-49 -81 41 0
-49 -82 42 0
-49 -83 43 0
-49 -84 44 0
-49 -85 45 0
-49 -86 46 0
-49 -87 47 0
-49 -88 48 0
-49 -89 49 0
-49 -90 50 0
-50 -91 41 0
-50 -92 42 0
-50 -93 43 0
-50 -94 44 0
-50 -95 45 0
-50 -96 46 0
-50 -97 47 0
-50 -98 48 0
-50 -99 49 0
-50 -100 50 0
-51 -1 51 0
-51 -2 52 0
-51 -3 53 0
-51 -4 54 0
-51 -5 55 0
-51 -6 56 0
-51 -7 57 0
-51 -8 58 0
-51 -9 59 0
-51 -10 60 0
-52 -11 51 0
-52 -12 52 0
-52 -13 53 0
-52 -14 54 0
-52 -15 55 0
-52 -16 56 0
-52 -17 57 0
-52 -18 58 0
-52 -19 59 0
-52 -20 60 0
-53 -21 51 0
-53 -22 52 0
-53 -23 53 0
-53 -24 54 0
-53 -25 55 0
-53 -26 56 0
-53 -27 57 0
-53 -28 58 0
-53 -29 59 0
-53 -30 60 0
-54 -31 51 0
-54 -32 52 0
-54 -33 53 0
-54 -34 54 0
-54 -35 55 0
-54 -36 56 0
-54 -37 57 0
-54 -38 58 0
-54 -39 59 0
-54 -40 60 0
-55 -41 51 0
-55 -42 52 0
-55 -43 53 0
-55 -44 54 0
-55 -45 55 0
-55 -46 56 0
-55 -47 57 0
-55 -48 58 0
-55 -49 59 0
-55 -50 60 0
-56 -51 51 0
-56 -52 52 0
-56 -53 53 0
-56 -54 54 0
-56 -55 55 0
-56 -56 56 0
-56 -57 57 0
-56 -58 58 0
-56 -59 59 0
-56 -60 60 0
-57 -61 51 0
-57 -62 52 0
-57 -63 53 0
-57 -64 54 0
-57 -65 55 0
-57 -66 56 0
-57 -67 57 0
-57 -68 58 0
-57 -69 59 0
-57 -70 60 0
-58 -71 51 0
-58 -72 52 0
-58 -73 53 0
-58 -74 54 0
-58 -75 55 0
-58 -76 56 0
-58 -77 57 0
-58 -78 58 0
-58 -79 59 0
-58 -80 60 0
-59 -81 51 0
-59 -82 52 0
-59 -83 53 0
-59 -84 54 0
-59 -85 55 0
-59 -86 56 0
-59 -87 57 0
-59 -88 58 0
-59 -89 59 0
-59 -90 60 0
-60 -91 51 0
-60 -92 52 0
-60 -93 53 0
-60 -94 54 0
-60 -95 55 0
-60 -96 56 0
-60 -97 57 0
-60 -98 58 0
-60 -99 59 0
-60 -100 60 0
-61 -1 61 0
-61 -2 62 0
-61 -3 63 0
-61 -4 64 0
-61 -5 65 0
-61 -6 66 0
-61 -7 67 0
-61 -8 68 0
-61 -9 69 0
-61 -10 70 0
-62 -11 61 0
-62 -12 62 0
-62 -13 63 0
-62 -14 64 0
-62 -15 65 0
-62 -16 66 0
-62 -17 67 0
-62 -18 68 0
-62 -19 69 0
-62 -20 70 0
-63 -21 61 0
-63 -22 62 0
-63 -23 63 0
-63 -24 64 0
-63 -25 65 0
-63 -26 66 0
-63 -27 67 0
-63 -28 68 0
-63 -29 69 0
-63 -30 70 0
-64 -31 61 0
-64 -32 62 0
-64 -33 63 0
-64 -34 64 0
-64 -35 65 0
-64 -36 66 0
-64 -37 67 0
-64 -38 68 0
-64 -39 69 0
-64 -40 70 0
-65 -41 61 0
-65 -42 62 0
-65 -43 63 0
-65 -44 64 0
-65 -45 65 0
-65 -46 66 0
-65 -47 67 0
-65 -48 68 0
-65 -49 69 0
-65 -50 70 0
-66 -51 61 0
-66 -52 62 0
-66 -53 63 0
-66 -54 64 0
-66 -55 65 0
-66 -56 66 0
-66 -57 67 0
-66 -58 68 0
-66 -59 69 0
-66 -60 70 0
-67 -61 61 0
-67 -62 62 0
-67 -63 63 0
-67 -64 64 0
-67 -65 65 0
-67 -66 66 0
-67 -67 67 0
-67 -68 68 0
-67 -69 69 0
-67 -70 70 0
-68 -71 61 0
-68 -72 62 0
-68 -73 63 0
-68 -74 64 0
-68 -75 65 0
-68 -76 66 0
-68 -77 67 0
-68 -78 68 0
-68 -79 69 0
-68 -80 70 0
-69 -81 61 0
-69 -82 62 0
-69 -83 63 0
-69 -84 64 0
-69 -85 65 0
-69 -86 66 0
-69 -87 67 0
-69 -88 68 0
-69 -89 69 0
-69 -90 70 0
-70 -91 61 0
-70 -92 62 0
-70 -93 63 0
-70 -94 64 0
-70 -95 65 0
-70 -96 66 0
-70 -97 67 0
-70 -98 68 0
-70 -99 69 0
-70 -100 70 0
-71 -1 71 0
-71 -2 72 0
-71 -3 73 0
-71 -4 74 0
-71 -5 75 0
-71 -6 76 0
-71 -7 77 0
-71 -8 78 0
-71 -9 79 0
-71 -10 80 0
-72 -11 71 0
-72 -12 72 0
-72 -13 73 0
-72 -14 74 0
-72 -15 75 0
-72 -16 76 0
-72 -17 77 0
-72 -18 78 0
-72 -19 79 0
-72 -20 80 0
-73 -21 71 0
-73 -22 72 0
-73 -23 73 0
-73 -24 74 0
-73 -25 75 0
-73 -26 76 0
-73 -27 77 0
-73 -28 78 0
-73 -29 79 0
-73 -30 80 0
-74 -31 71 0
-74 -32 72 0
-74 -33 73 0
-74 -34 74 0
-74 -35 75 0
-74 -36 76 0
-74 -37 77 0
-74 -38 78 0
-74 -39 79 0
-74 -40 80 0
-75 -41 71 0
-75 -42 72 0
-75 -43 73 0
-75 -44 74 0
-75 -45 75 0
-75 -46 76 0
-75 -47 77 0
-75 -48 78 0
-75 -49 79 0
-75 -50 80 0
-76 -51 71 0
-76 -52 72 0
-76 -53 73 0
-76 -54 74 0
-76 -55 75 0
-76 -56 76 0
-76 -57 77 0
-76 -58 78 0
-76 -59 79 0
-76 -60 80 0
-77 -61 71 0
-77 -62 72 0
-77 -63 73 0
-77 -64 74 0
-77 -65 75 0
-77 -66 76 0
-77 -67 77 0
-77 -68 78 0
-77 -69 79 0
-77 -70 80 0
-78 -71 71 0
-78 -72 72 0
-78 -73 73 0
-78 -74 74 0
-78 -75 75 0
-78 -76 76 0
-78 -77 77 0
-78 -78 78 0
-78 -79 79 0
-78 -80 80 0
-79 -81 71 0
-79 -82 72 0
-79 -83 73 0
-79 -84 74 0
-79 -85 75 0
-79 -86 76 0
-79 -87 77 0
-79 -88 78 0
-79 -89 79 0
-79 -90 80 0
-80 -91 71 0
-80 -92 72 0
-80 -93 73 0
-80 -94 74 0
-80 -95 75 0
-80 -96 76 0
-80 -97 77 0
-80 -98 78 0
-80 -99 79 0
-80 -100 80 0
-81 -1 81 0
-81 -2 82 0
-81 -3 83 0
-81 -4 84 0
-81 -5 85 0
-81 -6 86 0
-81 -7 87 0
-81 -8 88 0
-81 -9 89 0
-81 -10 90 0
-82 -11 81 0
-82 -12 82 0
-82 -13 83 0
-82 -14 84 0
-82 -15 85 0
-82 -16 86 0
-82 -17 87 0
-82 -18 88 0
-82 -19 89 0
-82 -20 90 0
-83 -21 81 0
-83 -22 82 0
-83 -23 83 0
-83 -24 84 0
-83 -25 85 0
-83 -26 86 0
-83 -27 87 0
-83 -28 88 0
-83 -29 89 0
-83 -30 90 0
-84 -31 81 0
-84 -32 82 0
-84 -33 83 0
-84 -34 84 0
-84 -35 85 0
-84 -36 86 0
-84 -37 87 0
-84 -38 88 0
-84 -39 89 0
-84 -40 90 0
-85 -41 81 0
-85 -42 82 0
-85 -43 83 0
-85 -44 84 0
-85 -45 85 0
-85 -46 86 0
-85 -47 87 0
-85 -48 88 0
-85 -49 89 0
-85 -50 90 0
-86 -51 81 0
-86 -52 82 0
-86 -53 83 0
-86 -54 84 0
-86 -55 85 0
-86 -56 86 0
-86 -57 87 0
-86 -58 88 0
-86 -59 89 0
-86 -60 90 0
-87 -61 81 0
-87 -62 82 0
-87 -63 83 0
-87 -64 84 0
-87 -65 85 0
-87 -66 86 0
-87 -67 87 0
-87 -68 88 0
-87 -69 89 0
-87 -70 90 0
-88 -71 81 0
-88 -72 82 0
-88 -73 83 0
-88 -74 84 0
-88 -75 85 0
-88 -76 86 0
-88 -77 87 0
-88 -78 88 0
-88 -79 89 0
-88 -80 90 0
-89 -81 81 0
-89 -82 82 0
-89 -83 83 0
-89 -84 84 0
-89 -85 85 0
-89 -86 86 0
-89 -87 87 0
-89 -88 88 0
-89 -89 89 0
-89 -90 90 0
-90 -91 81 0
-90 -92 82 0
-90 -93 83 0
-90 -94 84 0
-90 -95 85 0
-90 -96 86 0
-90 -97 87 0
-90 -98 88 0
-90 -99 89 0
-90 -100 90 0
-91 -1 91 0
-91 -2 92 0
-91 -3 93 0
-91 -4 94 0
-91 -5 95 0
-91 -6 96 0
-91 -7 97 0
-91 -8 98 0
-91 -9 99 0
-91 -10 100 0
-92 -11 91 0
-92 -12 92 0
-92 -13 93 0
-92 -14 94 0
-92 -15 95 0
-92 -16 96 0
-92 -17 97 0
-92 -18 98 0
-92 -19 99 0
-92 -20 100 0
-93 -21 91 0
-93 -22 92 0
-93 -23 93 0
-93 -24 94 0
-93 -25 95 0
-93 -26 96 0
-93 -27 97 0
-93 -28 98 0
-93 -29 99 0
-93 -30 100 0
-94 -31 91 0
-94 -32 92 0
-94 -33 93 0
-94 -34 94 0
-94 -35 95 0
-94 -36 96 0
-94 -37 97 0
-94 -38 98 0
-94 -39 99 0
-94 -40 100 0
-95 -41 91 0
-95 -42 92 0
-95 -43 93 0
-95 -44 94 0
-95 -45 95 0
-95 -46 96 0
-95 -47 97 0
-95 -48 98 0
-95 -49 99 0
-95 -50 100 0
-96 -51 91 0
-96 -52 92 0
-96 -53 93 0
-96 -54 94 0
-96 -55 95 0
-96 -56 96 0
-96 -57 97 0
-96 -58 98 0
-96 -59 99 0
-96 -60 100 0
-97 -61 91 0
-97 -62 92 0
-97 -63 93 0
-97 -64 94 0
-97 -65 95 0
-97 -66 96 0
-97 -67 97 0
-97 -68 98 0
-97 -69 99 0
-97 -70 100 0
-98 -71 91 0
-98 -72 92 0
-98 -73 93 0
-98 -74 94 0
-98 -75 95 0
-98 -76 96 0
-98 -77 97 0
-98 -78 98 0
-98 -79 99 0
-98 -80 100 0
-99 -81 91 0
-99 -82 92 0
-99 -83 93 0
-99 -84 94 0
-99 -85 95 0
-99 -86 96 0
-99 -87 97 0
-99 -88 98 0
-99 -89 99 0
-99 -90 100 0
-100 -91 91 0
-100 -92 92 0
-100 -93 93 0
-100 -94 94 0
-100 -95 95 0
-100 -96 96 0
-100 -97 97 0
-100 -98 98 0
-100 -99 99 0
-100 -100 100 0
